40
1 0 16
5 0 15
5 1 6
5 3 10
5 4 11
6 1 1
6 2 5
6 4 4
7 0 5
7 1 17
7 2 11
7 6 16
8 1 13
8 2 6
8 3 12
8 4 13
8 5 5
8 6 10
9 0 3
9 1 20
9 2 2
9 3 17
9 4 13
9 8 3
10 4 2
10 5 12
11 0 19
11 1 19
11 2 19
11 3 13
11 10 5
12 0 9
12 1 1
12 3 13
12 7 4
12 10 15
13 0 19
13 1 10
13 2 14
13 3 15
13 4 16
13 6 20
13 7 15
13 8 12
13 12 20
14 0 9
14 1 9
14 2 15
14 3 9
14 6 3
14 10 7
14 11 10
14 13 19
15 1 15
15 5 20
15 8 9
15 9 17
15 10 4
15 11 4
15 13 4
15 14 3
16 1 4
16 3 18
16 5 19
16 9 16
16 10 16
16 11 8
17 3 14
17 4 4
17 6 19
17 8 17
17 9 19
17 11 5
17 12 3
17 13 12
17 14 5
17 15 18
18 0 12
18 1 7
18 4 15
18 5 8
18 6 7
18 7 6
18 8 19
18 9 12
18 10 2
18 11 2
18 14 16
18 16 11
18 17 8
19 5 4
19 7 3
19 10 4
19 11 20
19 12 1
19 13 13
19 14 14
19 15 10
19 16 18
20 0 6
20 1 2
20 2 4
20 4 18
20 5 20
20 10 14
20 11 15
20 12 12
20 13 19
20 14 6
20 15 5
20 17 5
20 18 20
20 19 3
21 1 18
21 2 1
21 4 6
21 7 9
21 9 1
21 15 20
21 17 20
21 20 8
22 1 19
22 2 15
22 3 11
22 4 11
22 7 8
22 8 1
22 9 18
22 11 13
22 13 14
22 14 4
22 15 18
22 16 19
22 17 13
22 19 16
22 20 4
23 0 7
23 5 17
23 8 13
23 9 5
23 12 10
23 15 7
23 16 18
23 18 6
23 21 15
24 1 2
24 4 5
24 8 8
24 9 3
24 11 7
24 18 1
24 20 12
24 23 1
25 1 2
25 2 14
25 3 14
25 4 8
25 6 8
25 10 10
25 12 4
25 13 18
25 15 19
25 16 13
25 17 18
25 20 4
25 21 5
25 22 10
26 0 12
26 1 15
26 3 19
26 6 16
26 9 15
26 15 6
26 16 8
26 20 18
26 23 19
27 2 11
27 3 3
27 4 15
27 7 4
27 8 14
27 9 20
27 10 9
27 11 6
27 12 10
27 13 17
27 14 12
27 15 9
27 18 7
27 19 17
27 20 13
27 21 8
27 22 4
27 23 13
27 26 16
28 0 20
28 2 10
28 3 15
28 5 16
28 7 18
28 9 19
28 10 11
28 11 10
28 12 1
28 14 3
28 15 6
28 19 15
28 20 10
28 21 8
28 24 1
28 26 9
29 2 12
29 3 19
29 4 8
29 6 5
29 8 15
29 11 4
29 13 4
29 14 19
29 16 4
29 19 11
29 25 2
29 28 8
30 1 18
30 5 13
30 6 17
30 9 17
30 12 19
30 16 6
30 20 9
30 21 4
30 24 11
30 27 16
30 28 11
30 29 18
31 3 4
31 4 19
31 6 20
31 7 20
31 8 5
31 9 2
31 10 9
31 12 9
31 15 5
31 16 16
31 17 3
31 19 8
31 20 18
31 21 17
31 23 6
31 24 1
31 25 7
31 26 9
31 27 17
31 28 10
31 29 4
31 30 20
32 2 12
32 4 5
32 6 8
32 7 8
32 8 10
32 11 9
32 13 18
32 15 10
32 18 7
32 21 1
32 23 7
32 24 8
32 25 5
32 26 11
32 28 4
32 29 5
32 30 20
33 3 14
33 4 13
33 5 17
33 10 13
33 12 16
33 14 20
33 19 15
33 23 1
33 24 10
33 32 19
34 2 13
34 3 2
34 4 17
34 5 7
34 6 15
34 9 20
34 11 6
34 12 11
34 15 10
34 17 5
34 19 17
34 25 11
34 26 13
34 27 6
34 28 13
34 29 7
34 30 7
34 32 5
35 0 8
35 1 8
35 3 20
35 4 18
35 5 16
35 7 6
35 8 13
35 12 1
35 13 5
35 14 13
35 18 2
35 20 13
35 21 5
35 22 19
35 24 3
35 26 6
35 28 9
35 30 8
35 31 9
35 34 2
36 2 16
36 6 6
36 9 5
36 12 2
36 13 3
36 20 18
36 24 3
36 25 14
36 26 2
36 27 14
36 32 7
36 33 9
36 34 3
36 35 3
37 7 11
37 8 13
37 9 3
37 10 18
37 11 3
37 12 15
37 14 14
37 15 6
37 16 2
37 17 19
37 20 2
37 22 19
37 24 17
37 26 6
37 28 1
37 29 20
37 30 10
37 32 20
37 33 16
37 35 5
37 36 16
38 1 11
38 2 18
38 3 12
38 6 14
38 8 5
38 10 4
38 11 13
38 17 15
38 18 13
38 19 7
38 21 11
38 22 9
38 23 1
38 24 2
38 26 20
38 28 10
38 29 5
38 30 3
38 33 15
38 34 16
38 35 8
38 36 13
38 37 7
39 0 8
39 2 15
39 3 14
39 6 20
39 10 9
39 12 7
39 14 9
39 15 10
39 16 12
39 20 1
39 21 7
39 25 13
39 27 1
39 31 4
39 32 10
39 34 18
39 36 8
